Cr1 W3 C3 I2
1.0
   3.2767748112636932    0.0000000000000000    0.0000000000000000
  -1.6383701435058393    2.8377801952778756    0.0000000000000000
   0.0000000000000000    0.0000000000000000   35.9687333059017291
C Cr I Nb
3 1 2 3
direct
  -0.0000003740421853    0.0000003740421853    0.5045296646304891 C
   0.6666650423718392    0.3333349576281605    0.4347069576854447 C
   0.3333345535318406    0.6666654464681593    0.5725586172576849 C
   0.0000026839361976   -0.0000026839361976    0.5961085699230748 Cr
   0.6666692403946719    0.3333307596053279    0.6524759464368181 I
   0.3333306180439289    0.6666693819560707    0.3475240535631820 I
   0.3333302999186418    0.6666697000813581    0.4694654866525302 W
   0.6666694648075325    0.3333305351924671    0.5417178500757723 W
  -0.0000015289624685    0.0000015289624685    0.4111822041234134 W
